data/mip_solutions/furman_sahinidis/reduced_transportation/22sp-ph_cplex.sol
Elapsed time: 0.12792801857
Nodes explored: 0
Upper bound: 26.0
Lower bound: 26.0
y[0,0]=1
y[1,5]=1
y[1,6]=1
y[1,8]=1
y[1,11]=1
y[2,1]=1
y[2,2]=1
y[2,11]=1
y[3,0]=1
y[4,11]=1
y[5,0]=1
y[6,0]=1
y[6,4]=1
y[6,7]=1
y[6,8]=1
y[6,11]=1
y[7,0]=1
y[8,1]=1
y[8,3]=1
y[8,8]=1
y[8,9]=1
y[8,11]=1
y[9,0]=1
y[10,0]=1
y[11,8]=1
y[11,10]=1
q[0,12,0,13]=8.86
q[0,12,0,16]=3.14
q[1,3,6,3]=4.1
q[1,3,8,3]=110.7
q[1,3,8,5]=25.2
q[1,4,8,4]=84.0
q[1,5,8,5]=42.0
q[1,6,8,6]=14.0
q[1,7,8,7]=308.0
q[1,8,5,8]=16.0
q[1,8,5,9]=106.0
q[1,8,5,16]=4.0
q[1,9,5,9]=38.0
q[1,9,5,10]=42.0
q[1,9,5,14]=46.0
q[1,10,5,10]=22.0
q[1,10,5,11]=34.0
q[1,11,5,11]=126.0
q[1,11,5,12]=14.0
q[1,12,5,12]=2.0
q[1,12,5,13]=12.0
q[1,13,5,13]=84.0
q[1,14,5,14]=2.0
q[1,14,5,15]=40.0
q[1,15,5,15]=56.0
q[1,15,11,17]=28.0
q[1,16,5,16]=28.0
q[1,17,11,17]=252.0
q[2,13,1,13]=173.4
q[2,13,2,16]=60.0
q[2,13,11,17]=42.6
q[2,14,2,14]=90.0
q[2,14,11,17]=48.0
q[2,15,2,15]=180.0
q[2,15,11,17]=96.0
q[2,16,11,17]=92.0
q[2,17,11,17]=460.0
q[3,15,0,16]=5.9
q[4,10,11,17]=184.0
q[4,11,11,17]=460.0
q[4,12,11,17]=46.0
q[4,13,11,17]=276.0
q[4,14,11,17]=138.0
q[4,15,11,17]=276.0
q[4,16,11,17]=92.0
q[4,17,11,17]=828.0
q[5,14,0,16]=3.5
q[6,6,7,6]=8.0
q[6,6,8,6]=10.0
q[6,7,8,7]=396.0
q[6,8,0,8]=8.0
q[6,8,0,9]=72.0
q[6,8,0,10]=32.0
q[6,8,0,14]=24.0
q[6,8,4,8]=7.6
q[6,8,11,17]=18.4
q[6,9,0,11]=8.0
q[6,9,0,12]=8.0
q[6,9,0,13]=39.14
q[6,9,11,17]=106.86
q[6,10,0,11]=72.0
q[6,11,0,15]=38.0
q[6,11,0,17]=142.0
q[6,12,0,15]=0.5
q[6,12,11,17]=17.5
q[6,13,11,17]=108.0
q[6,14,11,17]=54.0
q[6,15,11,17]=108.0
q[6,16,11,17]=36.0
q[6,17,11,17]=180.0
q[7,14,0,15]=9.5
q[8,1,3,1]=12.0
q[8,1,8,1]=1606.7
q[8,1,8,2]=387.7
q[8,2,8,2]=364.3
q[8,2,8,3]=163.7
q[8,3,8,3]=477.6
q[8,3,8,4]=50.4
q[8,4,8,4]=316.8
q[8,5,8,5]=158.4
q[8,6,8,6]=51.2
q[8,6,8,7]=1.6
q[8,7,1,11]=59.8
q[8,7,1,14]=153.0
q[8,7,8,7]=948.8
q[8,8,1,8]=72.0
q[8,8,1,9]=172.8
q[8,8,1,10]=228.2
q[8,8,9,10]=2.2
q[8,9,1,9]=475.2
q[8,10,1,10]=59.8
q[8,10,1,11]=151.4
q[8,11,1,11]=508.8
q[8,11,1,12]=19.2
q[8,12,1,12]=52.8
q[8,13,1,13]=258.6
q[8,13,1,14]=58.2
q[8,14,1,14]=4.8
q[8,14,1,15]=153.6
q[8,15,1,15]=278.4
q[8,15,1,16]=38.4
q[8,16,1,16]=105.6
q[8,17,11,17]=950.4
q[9,17,0,17]=2.0
q[10,16,0,16]=3.46
q[11,0,8,0]=1955.2
q[11,0,8,1]=1250.9
q[11,0,10,4]=3.8
